
Gurobi 11.0.1 (win64) logging started Mon May 13 14:45:28 2024

Set parameter LogFile to value "output/solver_log2.txt"
Gurobi Optimizer version 11.0.1 build v11.0.1rc0 (win64 - Windows 11.0 (22631.2))

CPU model: 11th Gen Intel(R) Core(TM) i7-1165G7 @ 2.80GHz, instruction set [SSE2|AVX|AVX2|AVX512]
Thread count: 4 physical cores, 8 logical processors, using up to 8 threads

Optimize a model with 1123 rows, 266 columns and 20660 nonzeros
Model fingerprint: 0x4a2db00b
Variable types: 88 continuous, 178 integer (178 binary)
Coefficient statistics:
  Matrix range     [4e-01, 1e+05]
  Objective range  [1e+00, 1e+02]
  Bounds range     [1e+00, 1e+00]
  RHS range        [1e-02, 1e+05]

User MIP start produced solution with objective 36730.3 (0.00s)
User MIP start produced solution with objective 54160.8 (0.00s)
User MIP start produced solution with objective 54160.8 (0.00s)
Loaded user MIP start with objective 54160.8

Presolve removed 128 rows and 133 columns
Presolve time: 0.03s
Presolved: 995 rows, 133 columns, 19598 nonzeros
Variable types: 74 continuous, 59 integer (58 binary)

Root relaxation: objective 5.472084e+04, 178 iterations, 0.01 seconds (0.02 work units)

    Nodes    |    Current Node    |     Objective Bounds      |     Work
 Expl Unexpl |  Obj  Depth IntInf | Incumbent    BestBd   Gap | It/Node Time

     0     0 54720.8442    0    2 54160.8442 54720.8442  1.03%     -    0s
H    0     0                    54260.844193 54720.8442  0.85%     -    0s
     0     0 54720.8442    0    2 54260.8442 54720.8442  0.85%     -    0s
     0     2 54720.8442    0    2 54260.8442 54720.8442  0.85%     -    0s
H   30    39                    54720.844193 54720.8442  0.00%  69.7    0s

Explored 38 nodes (2912 simplex iterations) in 0.24 seconds (0.46 work units)
Thread count was 8 (of 8 available processors)

Solution count 5: 54720.8 54720.8 54260.8 ... 36730.3

Optimal solution found (tolerance 1.00e-04)
Best objective 5.472084419319e+04, best bound 5.472084419319e+04, gap 0.0000%
